NURSE = { A, B, C, D, E, F, G, H, I, J, K, L };

nday = 14;
%                     1      2      3      4      5      6      7      8      9     10     11     12     13     14
rostered_off = array2d(NURSE, 1..nday, [ false | n in NURSE, d in 1..nday ]);
                
maxweek = 5;
maxnightfort = 4;
minfort = 8; 
minshift =  array2d(SHIFT, 1..nday, [ 2 | s in SHIFT, d in 1..nday ]);
                         

shift_cost = [ 1, 1, 1, 2, 2, 3, 3, 3, 4, 4, 10, 10 ];

WARD = { GEN, '  .' };
dummy = '  .';
minward =   [| 10, 9, 2, 5, 9, 7, 5, 2, 5, 2, 9, 10, 7, 9  
             | 0, 0, 0, 0, 0, 0, 0, 0, 0, 0, 0, 0, 0, 0
             |];
maxward = 2;    

SKILL = { SENIOR};  
senior = SENIOR;
skill = [ {SENIOR} | n in NURSE ];
required = [ {}, {} ];    
                 
